Problem:    knapsack300_glpk
Rows:       2
Columns:    300 (300 integer, 300 binary)
Non-zeros:  600
Status:     INTEGER OPTIMAL
Objective:  z = 4154.441453 (MAXimum)

   No.   Row name        Activity     Lower bound   Upper bound
------ ------------    ------------- ------------- -------------
     1 z                     4154.44                             
     2 Weight                 1092.2                     1092.23 

   No. Column name       Activity     Lower bound   Upper bound
------ ------------    ------------- ------------- -------------
     1 x0           *              1             0             1 
     2 x1           *              1             0             1 
     3 x2           *              1             0             1 
     4 x3           *              1             0             1 
     5 x4           *              1             0             1 
     6 x5           *              1             0             1 
     7 x6           *              1             0             1 
     8 x7           *              0             0             1 
     9 x8           *              1             0             1 
    10 x9           *              1             0             1 
    11 x10          *              1             0             1 
    12 x11          *              1             0             1 
    13 x12          *              0             0             1 
    14 x13          *              1             0             1 
    15 x14          *              1             0             1 
    16 x15          *              1             0             1 
    17 x16          *              1             0             1 
    18 x17          *              1             0             1 
    19 x18          *              0             0             1 
    20 x19          *              0             0             1 
    21 x20          *              1             0             1 
    22 x21          *              1             0             1 
    23 x22          *              1             0             1 
    24 x23          *              1             0             1 
    25 x24          *              1             0             1 
    26 x25          *              1             0             1 
    27 x26          *              1             0             1 
    28 x27          *              1             0             1 
    29 x28          *              1             0             1 
    30 x29          *              0             0             1 
    31 x30          *              0             0             1 
    32 x31          *              1             0             1 
    33 x32          *              1             0             1 
    34 x33          *              1             0             1 
    35 x34          *              1             0             1 
    36 x35          *              1             0             1 
    37 x36          *              1             0             1 
    38 x37          *              1             0             1 
    39 x38          *              1             0             1 
    40 x39          *              0             0             1 
    41 x40          *              1             0             1 
    42 x41          *              1             0             1 
    43 x42          *              1             0             1 
    44 x43          *              0             0             1 
    45 x44          *              1             0             1 
    46 x45          *              1             0             1 
    47 x46          *              0             0             1 
    48 x47          *              1             0             1 
    49 x48          *              1             0             1 
    50 x49          *              1             0             1 
    51 x50          *              0             0             1 
    52 x51          *              1             0             1 
    53 x52          *              1             0             1 
    54 x53          *              1             0             1 
    55 x54          *              1             0             1 
    56 x55          *              1             0             1 
    57 x56          *              1             0             1 
    58 x57          *              1             0             1 
    59 x58          *              1             0             1 
    60 x59          *              0             0             1 
    61 x60          *              1             0             1 
    62 x61          *              0             0             1 
    63 x62          *              1             0             1 
    64 x63          *              1             0             1 
    65 x64          *              1             0             1 
    66 x65          *              1             0             1 
    67 x66          *              1             0             1 
    68 x67          *              1             0             1 
    69 x68          *              1             0             1 
    70 x69          *              1             0             1 
    71 x70          *              1             0             1 
    72 x71          *              0             0             1 
    73 x72          *              0             0             1 
    74 x73          *              1             0             1 
    75 x74          *              0             0             1 
    76 x75          *              1             0             1 
    77 x76          *              1             0             1 
    78 x77          *              0             0             1 
    79 x78          *              1             0             1 
    80 x79          *              1             0             1 
    81 x80          *              1             0             1 
    82 x81          *              1             0             1 
    83 x82          *              0             0             1 
    84 x83          *              1             0             1 
    85 x84          *              1             0             1 
    86 x85          *              1             0             1 
    87 x86          *              1             0             1 
    88 x87          *              1             0             1 
    89 x88          *              1             0             1 
    90 x89          *              0             0             1 
    91 x90          *              1             0             1 
    92 x91          *              1             0             1 
    93 x92          *              1             0             1 
    94 x93          *              1             0             1 
    95 x94          *              1             0             1 
    96 x95          *              1             0             1 
    97 x96          *              1             0             1 
    98 x97          *              1             0             1 
    99 x98          *              1             0             1 
   100 x99          *              1             0             1 
   101 x100         *              1             0             1 
   102 x101         *              1             0             1 
   103 x102         *              0             0             1 
   104 x103         *              1             0             1 
   105 x104         *              1             0             1 
   106 x105         *              1             0             1 
   107 x106         *              1             0             1 
   108 x107         *              1             0             1 
   109 x108         *              0             0             1 
   110 x109         *              1             0             1 
   111 x110         *              1             0             1 
   112 x111         *              1             0             1 
   113 x112         *              1             0             1 
   114 x113         *              1             0             1 
   115 x114         *              1             0             1 
   116 x115         *              0             0             1 
   117 x116         *              1             0             1 
   118 x117         *              1             0             1 
   119 x118         *              1             0             1 
   120 x119         *              1             0             1 
   121 x120         *              1             0             1 
   122 x121         *              1             0             1 
   123 x122         *              1             0             1 
   124 x123         *              1             0             1 
   125 x124         *              1             0             1 
   126 x125         *              0             0             1 
   127 x126         *              1             0             1 
   128 x127         *              1             0             1 
   129 x128         *              0             0             1 
   130 x129         *              1             0             1 
   131 x130         *              0             0             1 
   132 x131         *              1             0             1 
   133 x132         *              1             0             1 
   134 x133         *              0             0             1 
   135 x134         *              1             0             1 
   136 x135         *              1             0             1 
   137 x136         *              1             0             1 
   138 x137         *              0             0             1 
   139 x138         *              1             0             1 
   140 x139         *              1             0             1 
   141 x140         *              1             0             1 
   142 x141         *              0             0             1 
   143 x142         *              1             0             1 
   144 x143         *              1             0             1 
   145 x144         *              1             0             1 
   146 x145         *              1             0             1 
   147 x146         *              1             0             1 
   148 x147         *              0             0             1 
   149 x148         *              1             0             1 
   150 x149         *              1             0             1 
   151 x150         *              1             0             1 
   152 x151         *              1             0             1 
   153 x152         *              1             0             1 
   154 x153         *              1             0             1 
   155 x154         *              0             0             1 
   156 x155         *              0             0             1 
   157 x156         *              1             0             1 
   158 x157         *              1             0             1 
   159 x158         *              1             0             1 
   160 x159         *              1             0             1 
   161 x160         *              1             0             1 
   162 x161         *              0             0             1 
   163 x162         *              1             0             1 
   164 x163         *              1             0             1 
   165 x164         *              0             0             1 
   166 x165         *              1             0             1 
   167 x166         *              1             0             1 
   168 x167         *              0             0             1 
   169 x168         *              1             0             1 
   170 x169         *              1             0             1 
   171 x170         *              1             0             1 
   172 x171         *              1             0             1 
   173 x172         *              1             0             1 
   174 x173         *              1             0             1 
   175 x174         *              0             0             1 
   176 x175         *              1             0             1 
   177 x176         *              1             0             1 
   178 x177         *              0             0             1 
   179 x178         *              1             0             1 
   180 x179         *              1             0             1 
   181 x180         *              1             0             1 
   182 x181         *              1             0             1 
   183 x182         *              1             0             1 
   184 x183         *              1             0             1 
   185 x184         *              1             0             1 
   186 x185         *              1             0             1 
   187 x186         *              1             0             1 
   188 x187         *              0             0             1 
   189 x188         *              1             0             1 
   190 x189         *              1             0             1 
   191 x190         *              1             0             1 
   192 x191         *              1             0             1 
   193 x192         *              0             0             1 
   194 x193         *              1             0             1 
   195 x194         *              1             0             1 
   196 x195         *              1             0             1 
   197 x196         *              1             0             1 
   198 x197         *              0             0             1 
   199 x198         *              1             0             1 
   200 x199         *              1             0             1 
   201 x200         *              1             0             1 
   202 x201         *              0             0             1 
   203 x202         *              1             0             1 
   204 x203         *              1             0             1 
   205 x204         *              1             0             1 
   206 x205         *              1             0             1 
   207 x206         *              1             0             1 
   208 x207         *              0             0             1 
   209 x208         *              1             0             1 
   210 x209         *              0             0             1 
   211 x210         *              0             0             1 
   212 x211         *              0             0             1 
   213 x212         *              1             0             1 
   214 x213         *              1             0             1 
   215 x214         *              1             0             1 
   216 x215         *              1             0             1 
   217 x216         *              1             0             1 
   218 x217         *              1             0             1 
   219 x218         *              0             0             1 
   220 x219         *              1             0             1 
   221 x220         *              1             0             1 
   222 x221         *              1             0             1 
   223 x222         *              1             0             1 
   224 x223         *              0             0             1 
   225 x224         *              0             0             1 
   226 x225         *              1             0             1 
   227 x226         *              0             0             1 
   228 x227         *              1             0             1 
   229 x228         *              1             0             1 
   230 x229         *              1             0             1 
   231 x230         *              1             0             1 
   232 x231         *              1             0             1 
   233 x232         *              1             0             1 
   234 x233         *              1             0             1 
   235 x234         *              1             0             1 
   236 x235         *              1             0             1 
   237 x236         *              0             0             1 
   238 x237         *              1             0             1 
   239 x238         *              0             0             1 
   240 x239         *              1             0             1 
   241 x240         *              0             0             1 
   242 x241         *              1             0             1 
   243 x242         *              1             0             1 
   244 x243         *              1             0             1 
   245 x244         *              0             0             1 
   246 x245         *              1             0             1 
   247 x246         *              0             0             1 
   248 x247         *              1             0             1 
   249 x248         *              1             0             1 
   250 x249         *              0             0             1 
   251 x250         *              1             0             1 
   252 x251         *              1             0             1 
   253 x252         *              1             0             1 
   254 x253         *              1             0             1 
   255 x254         *              1             0             1 
   256 x255         *              1             0             1 
   257 x256         *              0             0             1 
   258 x257         *              1             0             1 
   259 x258         *              1             0             1 
   260 x259         *              1             0             1 
   261 x260         *              1             0             1 
   262 x261         *              1             0             1 
   263 x262         *              1             0             1 
   264 x263         *              1             0             1 
   265 x264         *              1             0             1 
   266 x265         *              1             0             1 
   267 x266         *              1             0             1 
   268 x267         *              1             0             1 
   269 x268         *              1             0             1 
   270 x269         *              0             0             1 
   271 x270         *              1             0             1 
   272 x271         *              1             0             1 
   273 x272         *              1             0             1 
   274 x273         *              0             0             1 
   275 x274         *              1             0             1 
   276 x275         *              1             0             1 
   277 x276         *              1             0             1 
   278 x277         *              0             0             1 
   279 x278         *              1             0             1 
   280 x279         *              1             0             1 
   281 x280         *              1             0             1 
   282 x281         *              1             0             1 
   283 x282         *              0             0             1 
   284 x283         *              1             0             1 
   285 x284         *              1             0             1 
   286 x285         *              1             0             1 
   287 x286         *              1             0             1 
   288 x287         *              1             0             1 
   289 x288         *              1             0             1 
   290 x289         *              1             0             1 
   291 x290         *              0             0             1 
   292 x291         *              0             0             1 
   293 x292         *              0             0             1 
   294 x293         *              1             0             1 
   295 x294         *              1             0             1 
   296 x295         *              1             0             1 
   297 x296         *              1             0             1 
   298 x297         *              0             0             1 
   299 x298         *              1             0             1 
   300 x299         *              1             0             1 

Integer feasibility conditions:

KKT.PE: max.abs.err = 0.00e+00 on row 0
        max.rel.err = 0.00e+00 on row 0
        High quality

KKT.PB: max.abs.err = 0.00e+00 on row 0
        max.rel.err = 0.00e+00 on row 0
        High quality

End of output
